(set-logic QF_LRA)
(declare-fun T1 () Real )
(declare-fun T2 () Real )
(declare-fun T3 () Real )
(declare-fun T4 () Real )
(declare-fun T5 () Real )
(declare-fun T6 () Real )
(declare-fun T7 () Real )
(declare-fun T8 () Real )
(declare-fun T9 () Real )
(declare-fun T10 () Real )
(declare-fun Z () Real )
(assert ( and 
(or ( <= ( + T1 85 ) T2 ) ( <= ( + T2 40 ) T1 ) )
(or ( <= ( + T1 119 )  ( + T2 40 ) ) ( <= ( + T2 129 )( + T1 85 ) ) )
(or ( <= ( + T1 167 )  ( + T2 129 ) ) ( <= ( + T2 165 )( + T1 119 ) ) )
(or ( <= ( + T1 242 )  ( + T2 165 ) ) ( <= ( + T2 187 )( + T1 167 ) ) )
(or ( <= ( + T1 246 )  ( + T2 187 ) ) ( <= ( + T2 228 )( + T1 242 ) ) )
(or ( <= ( + T1 336 )  ( + T2 228 ) ) ( <= ( + T2 312 )( + T1 246 ) ) )
(or ( <= ( + T1 368 )  ( + T2 312 ) ) ( <= ( + T2 404 )( + T1 336 ) ) )
(or ( <= ( + T1 436 )  ( + T2 404 ) ) ( <= ( + T2 468 )( + T1 368 ) ) )
(or ( <= ( + T1 437 )  ( + T2 468 ) ) ( <= ( + T2 498 )( + T1 436 ) ) )
(or ( <= ( + T1 460 )  ( + T2 498 ) ) ( <= ( + T2 565 )( + T1 437 ) ) )
(or ( <= ( + T1 510 )  ( + T2 565 ) ) ( <= ( + T2 612 )( + T1 460 ) ) )
(or ( <= ( + T1 524 )  ( + T2 612 ) ) ( <= ( + T2 659 )( + T1 510 ) ) )
(or ( <= ( + T1 85 ) T3 ) ( <= ( + T3 12 ) T1 ) )
(or ( <= ( + T1 119 )  ( + T3 12 ) ) ( <= ( + T3 38 )( + T1 85 ) ) )
(or ( <= ( + T1 167 )  ( + T3 38 ) ) ( <= ( + T3 46 )( + T1 119 ) ) )
(or ( <= ( + T1 242 )  ( + T3 46 ) ) ( <= ( + T3 65 )( + T1 167 ) ) )
(or ( <= ( + T1 246 )  ( + T3 65 ) ) ( <= ( + T3 158 )( + T1 242 ) ) )
(or ( <= ( + T1 336 )  ( + T3 158 ) ) ( <= ( + T3 215 )( + T1 246 ) ) )
(or ( <= ( + T1 368 )  ( + T3 215 ) ) ( <= ( + T3 223 )( + T1 336 ) ) )
(or ( <= ( + T1 436 )  ( + T3 223 ) ) ( <= ( + T3 252 )( + T1 368 ) ) )
(or ( <= ( + T1 437 )  ( + T3 252 ) ) ( <= ( + T3 294 )( + T1 436 ) ) )
(or ( <= ( + T1 460 )  ( + T3 294 ) ) ( <= ( + T3 350 )( + T1 437 ) ) )
(or ( <= ( + T1 510 )  ( + T3 350 ) ) ( <= ( + T3 353 )( + T1 460 ) ) )
(or ( <= ( + T1 524 )  ( + T3 353 ) ) ( <= ( + T3 451 )( + T1 510 ) ) )
(or ( <= ( + T1 85 ) T4 ) ( <= ( + T4 97 ) T1 ) )
(or ( <= ( + T1 119 )  ( + T4 97 ) ) ( <= ( + T4 184 )( + T1 85 ) ) )
(or ( <= ( + T1 167 )  ( + T4 184 ) ) ( <= ( + T4 249 )( + T1 119 ) ) )
(or ( <= ( + T1 242 )  ( + T4 249 ) ) ( <= ( + T4 346 )( + T1 167 ) ) )
(or ( <= ( + T1 246 )  ( + T4 346 ) ) ( <= ( + T4 355 )( + T1 242 ) ) )
(or ( <= ( + T1 336 )  ( + T4 355 ) ) ( <= ( + T4 421 )( + T1 246 ) ) )
(or ( <= ( + T1 368 )  ( + T4 421 ) ) ( <= ( + T4 483 )( + T1 336 ) ) )
(or ( <= ( + T1 436 )  ( + T4 483 ) ) ( <= ( + T4 531 )( + T1 368 ) ) )
(or ( <= ( + T1 437 )  ( + T4 531 ) ) ( <= ( + T4 538 )( + T1 436 ) ) )
(or ( <= ( + T1 460 )  ( + T4 538 ) ) ( <= ( + T4 587 )( + T1 437 ) ) )
(or ( <= ( + T1 510 )  ( + T4 587 ) ) ( <= ( + T4 609 )( + T1 460 ) ) )
(or ( <= ( + T1 524 )  ( + T4 609 ) ) ( <= ( + T4 708 )( + T1 510 ) ) )
(or ( <= ( + T1 85 ) T5 ) ( <= ( + T5 32 ) T1 ) )
(or ( <= ( + T1 119 )  ( + T5 32 ) ) ( <= ( + T5 45 )( + T1 85 ) ) )
(or ( <= ( + T1 167 )  ( + T5 45 ) ) ( <= ( + T5 60 )( + T1 119 ) ) )
(or ( <= ( + T1 242 )  ( + T5 60 ) ) ( <= ( + T5 74 )( + T1 167 ) ) )
(or ( <= ( + T1 246 )  ( + T5 74 ) ) ( <= ( + T5 154 )( + T1 242 ) ) )
(or ( <= ( + T1 336 )  ( + T5 154 ) ) ( <= ( + T5 215 )( + T1 246 ) ) )
(or ( <= ( + T1 368 )  ( + T5 215 ) ) ( <= ( + T5 227 )( + T1 336 ) ) )
(or ( <= ( + T1 436 )  ( + T5 227 ) ) ( <= ( + T5 270 )( + T1 368 ) ) )
(or ( <= ( + T1 437 )  ( + T5 270 ) ) ( <= ( + T5 356 )( + T1 436 ) ) )
(or ( <= ( + T1 460 )  ( + T5 356 ) ) ( <= ( + T5 375 )( + T1 437 ) ) )
(or ( <= ( + T1 510 )  ( + T5 375 ) ) ( <= ( + T5 388 )( + T1 460 ) ) )
(or ( <= ( + T1 524 )  ( + T5 388 ) ) ( <= ( + T5 466 )( + T1 510 ) ) )
(or ( <= ( + T1 85 ) T6 ) ( <= ( + T6 28 ) T1 ) )
(or ( <= ( + T1 119 )  ( + T6 28 ) ) ( <= ( + T6 48 )( + T1 85 ) ) )
(or ( <= ( + T1 167 )  ( + T6 48 ) ) ( <= ( + T6 107 )( + T1 119 ) ) )
(or ( <= ( + T1 242 )  ( + T6 107 ) ) ( <= ( + T6 176 )( + T1 167 ) ) )
(or ( <= ( + T1 246 )  ( + T6 176 ) ) ( <= ( + T6 251 )( + T1 242 ) ) )
(or ( <= ( + T1 336 )  ( + T6 251 ) ) ( <= ( + T6 312 )( + T1 246 ) ) )
(or ( <= ( + T1 368 )  ( + T6 312 ) ) ( <= ( + T6 378 )( + T1 336 ) ) )
(or ( <= ( + T1 436 )  ( + T6 378 ) ) ( <= ( + T6 449 )( + T1 368 ) ) )
(or ( <= ( + T1 437 )  ( + T6 449 ) ) ( <= ( + T6 548 )( + T1 436 ) ) )
(or ( <= ( + T1 460 )  ( + T6 548 ) ) ( <= ( + T6 631 )( + T1 437 ) ) )
(or ( <= ( + T1 510 )  ( + T6 631 ) ) ( <= ( + T6 698 )( + T1 460 ) ) )
(or ( <= ( + T1 524 )  ( + T6 698 ) ) ( <= ( + T6 706 )( + T1 510 ) ) )
(or ( <= ( + T1 85 ) T7 ) ( <= ( + T7 100 ) T1 ) )
(or ( <= ( + T1 119 )  ( + T7 100 ) ) ( <= ( + T7 180 )( + T1 85 ) ) )
(or ( <= ( + T1 167 )  ( + T7 180 ) ) ( <= ( + T7 187 )( + T1 119 ) ) )
(or ( <= ( + T1 242 )  ( + T7 187 ) ) ( <= ( + T7 193 )( + T1 167 ) ) )
(or ( <= ( + T1 246 )  ( + T7 193 ) ) ( <= ( + T7 221 )( + T1 242 ) ) )
(or ( <= ( + T1 336 )  ( + T7 221 ) ) ( <= ( + T7 249 )( + T1 246 ) ) )
(or ( <= ( + T1 368 )  ( + T7 249 ) ) ( <= ( + T7 254 )( + T1 336 ) ) )
(or ( <= ( + T1 436 )  ( + T7 254 ) ) ( <= ( + T7 266 )( + T1 368 ) ) )
(or ( <= ( + T1 437 )  ( + T7 266 ) ) ( <= ( + T7 307 )( + T1 436 ) ) )
(or ( <= ( + T1 460 )  ( + T7 307 ) ) ( <= ( + T7 378 )( + T1 437 ) ) )
(or ( <= ( + T1 510 )  ( + T7 378 ) ) ( <= ( + T7 403 )( + T1 460 ) ) )
(or ( <= ( + T1 524 )  ( + T7 403 ) ) ( <= ( + T7 475 )( + T1 510 ) ) )
(or ( <= ( + T1 85 ) T8 ) ( <= ( + T8 31 ) T1 ) )
(or ( <= ( + T1 119 )  ( + T8 31 ) ) ( <= ( + T8 67 )( + T1 85 ) ) )
(or ( <= ( + T1 167 )  ( + T8 67 ) ) ( <= ( + T8 81 )( + T1 119 ) ) )
(or ( <= ( + T1 242 )  ( + T8 81 ) ) ( <= ( + T8 149 )( + T1 167 ) ) )
(or ( <= ( + T1 246 )  ( + T8 149 ) ) ( <= ( + T8 155 )( + T1 242 ) ) )
(or ( <= ( + T1 336 )  ( + T8 155 ) ) ( <= ( + T8 181 )( + T1 246 ) ) )
(or ( <= ( + T1 368 )  ( + T8 181 ) ) ( <= ( + T8 279 )( + T1 336 ) ) )
(or ( <= ( + T1 436 )  ( + T8 279 ) ) ( <= ( + T8 312 )( + T1 368 ) ) )
(or ( <= ( + T1 437 )  ( + T8 312 ) ) ( <= ( + T8 409 )( + T1 436 ) ) )
(or ( <= ( + T1 460 )  ( + T8 409 ) ) ( <= ( + T8 465 )( + T1 437 ) ) )
(or ( <= ( + T1 510 )  ( + T8 465 ) ) ( <= ( + T8 519 )( + T1 460 ) ) )
(or ( <= ( + T1 524 )  ( + T8 519 ) ) ( <= ( + T8 591 )( + T1 510 ) ) )
(or ( <= ( + T1 85 ) T9 ) ( <= ( + T9 68 ) T1 ) )
(or ( <= ( + T1 119 )  ( + T9 68 ) ) ( <= ( + T9 87 )( + T1 85 ) ) )
(or ( <= ( + T1 167 )  ( + T9 87 ) ) ( <= ( + T9 129 )( + T1 119 ) ) )
(or ( <= ( + T1 242 )  ( + T9 129 ) ) ( <= ( + T9 196 )( + T1 167 ) ) )
(or ( <= ( + T1 246 )  ( + T9 196 ) ) ( <= ( + T9 249 )( + T1 242 ) ) )
(or ( <= ( + T1 336 )  ( + T9 249 ) ) ( <= ( + T9 310 )( + T1 246 ) ) )
(or ( <= ( + T1 368 )  ( + T9 310 ) ) ( <= ( + T9 384 )( + T1 336 ) ) )
(or ( <= ( + T1 436 )  ( + T9 384 ) ) ( <= ( + T9 437 )( + T1 368 ) ) )
(or ( <= ( + T1 437 )  ( + T9 437 ) ) ( <= ( + T9 477 )( + T1 436 ) ) )
(or ( <= ( + T1 460 )  ( + T9 477 ) ) ( <= ( + T9 509 )( + T1 437 ) ) )
(or ( <= ( + T1 510 )  ( + T9 509 ) ) ( <= ( + T9 567 )( + T1 460 ) ) )
(or ( <= ( + T1 524 )  ( + T9 567 ) ) ( <= ( + T9 587 )( + T1 510 ) ) )
(or ( <= ( + T1 85 ) T10 ) ( <= ( + T10 60 ) T1 ) )
(or ( <= ( + T1 119 )  ( + T10 60 ) ) ( <= ( + T10 74 )( + T1 85 ) ) )
(or ( <= ( + T1 167 )  ( + T10 74 ) ) ( <= ( + T10 105 )( + T1 119 ) ) )
(or ( <= ( + T1 242 )  ( + T10 105 ) ) ( <= ( + T10 157 )( + T1 167 ) ) )
(or ( <= ( + T1 246 )  ( + T10 157 ) ) ( <= ( + T10 241 )( + T1 242 ) ) )
(or ( <= ( + T1 336 )  ( + T10 241 ) ) ( <= ( + T10 296 )( + T1 246 ) ) )
(or ( <= ( + T1 368 )  ( + T10 296 ) ) ( <= ( + T10 371 )( + T1 336 ) ) )
(or ( <= ( + T1 436 )  ( + T10 371 ) ) ( <= ( + T10 437 )( + T1 368 ) ) )
(or ( <= ( + T1 437 )  ( + T10 437 ) ) ( <= ( + T10 479 )( + T1 436 ) ) )
(or ( <= ( + T1 460 )  ( + T10 479 ) ) ( <= ( + T10 519 )( + T1 437 ) ) )
(or ( <= ( + T1 510 )  ( + T10 519 ) ) ( <= ( + T10 605 )( + T1 460 ) ) )
(or ( <= ( + T1 524 )  ( + T10 605 ) ) ( <= ( + T10 652 )( + T1 510 ) ) )
(or ( <= ( + T2 40 ) T3 ) ( <= ( + T3 12 ) T2 ) )
(or ( <= ( + T2 129 )  ( + T3 12 ) ) ( <= ( + T3 38 )( + T2 40 ) ) )
(or ( <= ( + T2 165 )  ( + T3 38 ) ) ( <= ( + T3 46 )( + T2 129 ) ) )
(or ( <= ( + T2 187 )  ( + T3 46 ) ) ( <= ( + T3 65 )( + T2 165 ) ) )
(or ( <= ( + T2 228 )  ( + T3 65 ) ) ( <= ( + T3 158 )( + T2 187 ) ) )
(or ( <= ( + T2 312 )  ( + T3 158 ) ) ( <= ( + T3 215 )( + T2 228 ) ) )
(or ( <= ( + T2 404 )  ( + T3 215 ) ) ( <= ( + T3 223 )( + T2 312 ) ) )
(or ( <= ( + T2 468 )  ( + T3 223 ) ) ( <= ( + T3 252 )( + T2 404 ) ) )
(or ( <= ( + T2 498 )  ( + T3 252 ) ) ( <= ( + T3 294 )( + T2 468 ) ) )
(or ( <= ( + T2 565 )  ( + T3 294 ) ) ( <= ( + T3 350 )( + T2 498 ) ) )
(or ( <= ( + T2 612 )  ( + T3 350 ) ) ( <= ( + T3 353 )( + T2 565 ) ) )
(or ( <= ( + T2 659 )  ( + T3 353 ) ) ( <= ( + T3 451 )( + T2 612 ) ) )
(or ( <= ( + T2 40 ) T4 ) ( <= ( + T4 97 ) T2 ) )
(or ( <= ( + T2 129 )  ( + T4 97 ) ) ( <= ( + T4 184 )( + T2 40 ) ) )
(or ( <= ( + T2 165 )  ( + T4 184 ) ) ( <= ( + T4 249 )( + T2 129 ) ) )
(or ( <= ( + T2 187 )  ( + T4 249 ) ) ( <= ( + T4 346 )( + T2 165 ) ) )
(or ( <= ( + T2 228 )  ( + T4 346 ) ) ( <= ( + T4 355 )( + T2 187 ) ) )
(or ( <= ( + T2 312 )  ( + T4 355 ) ) ( <= ( + T4 421 )( + T2 228 ) ) )
(or ( <= ( + T2 404 )  ( + T4 421 ) ) ( <= ( + T4 483 )( + T2 312 ) ) )
(or ( <= ( + T2 468 )  ( + T4 483 ) ) ( <= ( + T4 531 )( + T2 404 ) ) )
(or ( <= ( + T2 498 )  ( + T4 531 ) ) ( <= ( + T4 538 )( + T2 468 ) ) )
(or ( <= ( + T2 565 )  ( + T4 538 ) ) ( <= ( + T4 587 )( + T2 498 ) ) )
(or ( <= ( + T2 612 )  ( + T4 587 ) ) ( <= ( + T4 609 )( + T2 565 ) ) )
(or ( <= ( + T2 659 )  ( + T4 609 ) ) ( <= ( + T4 708 )( + T2 612 ) ) )
(or ( <= ( + T2 40 ) T5 ) ( <= ( + T5 32 ) T2 ) )
(or ( <= ( + T2 129 )  ( + T5 32 ) ) ( <= ( + T5 45 )( + T2 40 ) ) )
(or ( <= ( + T2 165 )  ( + T5 45 ) ) ( <= ( + T5 60 )( + T2 129 ) ) )
(or ( <= ( + T2 187 )  ( + T5 60 ) ) ( <= ( + T5 74 )( + T2 165 ) ) )
(or ( <= ( + T2 228 )  ( + T5 74 ) ) ( <= ( + T5 154 )( + T2 187 ) ) )
(or ( <= ( + T2 312 )  ( + T5 154 ) ) ( <= ( + T5 215 )( + T2 228 ) ) )
(or ( <= ( + T2 404 )  ( + T5 215 ) ) ( <= ( + T5 227 )( + T2 312 ) ) )
(or ( <= ( + T2 468 )  ( + T5 227 ) ) ( <= ( + T5 270 )( + T2 404 ) ) )
(or ( <= ( + T2 498 )  ( + T5 270 ) ) ( <= ( + T5 356 )( + T2 468 ) ) )
(or ( <= ( + T2 565 )  ( + T5 356 ) ) ( <= ( + T5 375 )( + T2 498 ) ) )
(or ( <= ( + T2 612 )  ( + T5 375 ) ) ( <= ( + T5 388 )( + T2 565 ) ) )
(or ( <= ( + T2 659 )  ( + T5 388 ) ) ( <= ( + T5 466 )( + T2 612 ) ) )
(or ( <= ( + T2 40 ) T6 ) ( <= ( + T6 28 ) T2 ) )
(or ( <= ( + T2 129 )  ( + T6 28 ) ) ( <= ( + T6 48 )( + T2 40 ) ) )
(or ( <= ( + T2 165 )  ( + T6 48 ) ) ( <= ( + T6 107 )( + T2 129 ) ) )
(or ( <= ( + T2 187 )  ( + T6 107 ) ) ( <= ( + T6 176 )( + T2 165 ) ) )
(or ( <= ( + T2 228 )  ( + T6 176 ) ) ( <= ( + T6 251 )( + T2 187 ) ) )
(or ( <= ( + T2 312 )  ( + T6 251 ) ) ( <= ( + T6 312 )( + T2 228 ) ) )
(or ( <= ( + T2 404 )  ( + T6 312 ) ) ( <= ( + T6 378 )( + T2 312 ) ) )
(or ( <= ( + T2 468 )  ( + T6 378 ) ) ( <= ( + T6 449 )( + T2 404 ) ) )
(or ( <= ( + T2 498 )  ( + T6 449 ) ) ( <= ( + T6 548 )( + T2 468 ) ) )
(or ( <= ( + T2 565 )  ( + T6 548 ) ) ( <= ( + T6 631 )( + T2 498 ) ) )
(or ( <= ( + T2 612 )  ( + T6 631 ) ) ( <= ( + T6 698 )( + T2 565 ) ) )
(or ( <= ( + T2 659 )  ( + T6 698 ) ) ( <= ( + T6 706 )( + T2 612 ) ) )
(or ( <= ( + T2 40 ) T7 ) ( <= ( + T7 100 ) T2 ) )
(or ( <= ( + T2 129 )  ( + T7 100 ) ) ( <= ( + T7 180 )( + T2 40 ) ) )
(or ( <= ( + T2 165 )  ( + T7 180 ) ) ( <= ( + T7 187 )( + T2 129 ) ) )
(or ( <= ( + T2 187 )  ( + T7 187 ) ) ( <= ( + T7 193 )( + T2 165 ) ) )
(or ( <= ( + T2 228 )  ( + T7 193 ) ) ( <= ( + T7 221 )( + T2 187 ) ) )
(or ( <= ( + T2 312 )  ( + T7 221 ) ) ( <= ( + T7 249 )( + T2 228 ) ) )
(or ( <= ( + T2 404 )  ( + T7 249 ) ) ( <= ( + T7 254 )( + T2 312 ) ) )
(or ( <= ( + T2 468 )  ( + T7 254 ) ) ( <= ( + T7 266 )( + T2 404 ) ) )
(or ( <= ( + T2 498 )  ( + T7 266 ) ) ( <= ( + T7 307 )( + T2 468 ) ) )
(or ( <= ( + T2 565 )  ( + T7 307 ) ) ( <= ( + T7 378 )( + T2 498 ) ) )
(or ( <= ( + T2 612 )  ( + T7 378 ) ) ( <= ( + T7 403 )( + T2 565 ) ) )
(or ( <= ( + T2 659 )  ( + T7 403 ) ) ( <= ( + T7 475 )( + T2 612 ) ) )
(or ( <= ( + T2 40 ) T8 ) ( <= ( + T8 31 ) T2 ) )
(or ( <= ( + T2 129 )  ( + T8 31 ) ) ( <= ( + T8 67 )( + T2 40 ) ) )
(or ( <= ( + T2 165 )  ( + T8 67 ) ) ( <= ( + T8 81 )( + T2 129 ) ) )
(or ( <= ( + T2 187 )  ( + T8 81 ) ) ( <= ( + T8 149 )( + T2 165 ) ) )
(or ( <= ( + T2 228 )  ( + T8 149 ) ) ( <= ( + T8 155 )( + T2 187 ) ) )
(or ( <= ( + T2 312 )  ( + T8 155 ) ) ( <= ( + T8 181 )( + T2 228 ) ) )
(or ( <= ( + T2 404 )  ( + T8 181 ) ) ( <= ( + T8 279 )( + T2 312 ) ) )
(or ( <= ( + T2 468 )  ( + T8 279 ) ) ( <= ( + T8 312 )( + T2 404 ) ) )
(or ( <= ( + T2 498 )  ( + T8 312 ) ) ( <= ( + T8 409 )( + T2 468 ) ) )
(or ( <= ( + T2 565 )  ( + T8 409 ) ) ( <= ( + T8 465 )( + T2 498 ) ) )
(or ( <= ( + T2 612 )  ( + T8 465 ) ) ( <= ( + T8 519 )( + T2 565 ) ) )
(or ( <= ( + T2 659 )  ( + T8 519 ) ) ( <= ( + T8 591 )( + T2 612 ) ) )
(or ( <= ( + T2 40 ) T9 ) ( <= ( + T9 68 ) T2 ) )
(or ( <= ( + T2 129 )  ( + T9 68 ) ) ( <= ( + T9 87 )( + T2 40 ) ) )
(or ( <= ( + T2 165 )  ( + T9 87 ) ) ( <= ( + T9 129 )( + T2 129 ) ) )
(or ( <= ( + T2 187 )  ( + T9 129 ) ) ( <= ( + T9 196 )( + T2 165 ) ) )
(or ( <= ( + T2 228 )  ( + T9 196 ) ) ( <= ( + T9 249 )( + T2 187 ) ) )
(or ( <= ( + T2 312 )  ( + T9 249 ) ) ( <= ( + T9 310 )( + T2 228 ) ) )
(or ( <= ( + T2 404 )  ( + T9 310 ) ) ( <= ( + T9 384 )( + T2 312 ) ) )
(or ( <= ( + T2 468 )  ( + T9 384 ) ) ( <= ( + T9 437 )( + T2 404 ) ) )
(or ( <= ( + T2 498 )  ( + T9 437 ) ) ( <= ( + T9 477 )( + T2 468 ) ) )
(or ( <= ( + T2 565 )  ( + T9 477 ) ) ( <= ( + T9 509 )( + T2 498 ) ) )
(or ( <= ( + T2 612 )  ( + T9 509 ) ) ( <= ( + T9 567 )( + T2 565 ) ) )
(or ( <= ( + T2 659 )  ( + T9 567 ) ) ( <= ( + T9 587 )( + T2 612 ) ) )
(or ( <= ( + T2 40 ) T10 ) ( <= ( + T10 60 ) T2 ) )
(or ( <= ( + T2 129 )  ( + T10 60 ) ) ( <= ( + T10 74 )( + T2 40 ) ) )
(or ( <= ( + T2 165 )  ( + T10 74 ) ) ( <= ( + T10 105 )( + T2 129 ) ) )
(or ( <= ( + T2 187 )  ( + T10 105 ) ) ( <= ( + T10 157 )( + T2 165 ) ) )
(or ( <= ( + T2 228 )  ( + T10 157 ) ) ( <= ( + T10 241 )( + T2 187 ) ) )
(or ( <= ( + T2 312 )  ( + T10 241 ) ) ( <= ( + T10 296 )( + T2 228 ) ) )
(or ( <= ( + T2 404 )  ( + T10 296 ) ) ( <= ( + T10 371 )( + T2 312 ) ) )
(or ( <= ( + T2 468 )  ( + T10 371 ) ) ( <= ( + T10 437 )( + T2 404 ) ) )
(or ( <= ( + T2 498 )  ( + T10 437 ) ) ( <= ( + T10 479 )( + T2 468 ) ) )
(or ( <= ( + T2 565 )  ( + T10 479 ) ) ( <= ( + T10 519 )( + T2 498 ) ) )
(or ( <= ( + T2 612 )  ( + T10 519 ) ) ( <= ( + T10 605 )( + T2 565 ) ) )
(or ( <= ( + T2 659 )  ( + T10 605 ) ) ( <= ( + T10 652 )( + T2 612 ) ) )
(or ( <= ( + T3 12 ) T4 ) ( <= ( + T4 97 ) T3 ) )
(or ( <= ( + T3 38 )  ( + T4 97 ) ) ( <= ( + T4 184 )( + T3 12 ) ) )
(or ( <= ( + T3 46 )  ( + T4 184 ) ) ( <= ( + T4 249 )( + T3 38 ) ) )
(or ( <= ( + T3 65 )  ( + T4 249 ) ) ( <= ( + T4 346 )( + T3 46 ) ) )
(or ( <= ( + T3 158 )  ( + T4 346 ) ) ( <= ( + T4 355 )( + T3 65 ) ) )
(or ( <= ( + T3 215 )  ( + T4 355 ) ) ( <= ( + T4 421 )( + T3 158 ) ) )
(or ( <= ( + T3 223 )  ( + T4 421 ) ) ( <= ( + T4 483 )( + T3 215 ) ) )
(or ( <= ( + T3 252 )  ( + T4 483 ) ) ( <= ( + T4 531 )( + T3 223 ) ) )
(or ( <= ( + T3 294 )  ( + T4 531 ) ) ( <= ( + T4 538 )( + T3 252 ) ) )
(or ( <= ( + T3 350 )  ( + T4 538 ) ) ( <= ( + T4 587 )( + T3 294 ) ) )
(or ( <= ( + T3 353 )  ( + T4 587 ) ) ( <= ( + T4 609 )( + T3 350 ) ) )
(or ( <= ( + T3 451 )  ( + T4 609 ) ) ( <= ( + T4 708 )( + T3 353 ) ) )
(or ( <= ( + T3 12 ) T5 ) ( <= ( + T5 32 ) T3 ) )
(or ( <= ( + T3 38 )  ( + T5 32 ) ) ( <= ( + T5 45 )( + T3 12 ) ) )
(or ( <= ( + T3 46 )  ( + T5 45 ) ) ( <= ( + T5 60 )( + T3 38 ) ) )
(or ( <= ( + T3 65 )  ( + T5 60 ) ) ( <= ( + T5 74 )( + T3 46 ) ) )
(or ( <= ( + T3 158 )  ( + T5 74 ) ) ( <= ( + T5 154 )( + T3 65 ) ) )
(or ( <= ( + T3 215 )  ( + T5 154 ) ) ( <= ( + T5 215 )( + T3 158 ) ) )
(or ( <= ( + T3 223 )  ( + T5 215 ) ) ( <= ( + T5 227 )( + T3 215 ) ) )
(or ( <= ( + T3 252 )  ( + T5 227 ) ) ( <= ( + T5 270 )( + T3 223 ) ) )
(or ( <= ( + T3 294 )  ( + T5 270 ) ) ( <= ( + T5 356 )( + T3 252 ) ) )
(or ( <= ( + T3 350 )  ( + T5 356 ) ) ( <= ( + T5 375 )( + T3 294 ) ) )
(or ( <= ( + T3 353 )  ( + T5 375 ) ) ( <= ( + T5 388 )( + T3 350 ) ) )
(or ( <= ( + T3 451 )  ( + T5 388 ) ) ( <= ( + T5 466 )( + T3 353 ) ) )
(or ( <= ( + T3 12 ) T6 ) ( <= ( + T6 28 ) T3 ) )
(or ( <= ( + T3 38 )  ( + T6 28 ) ) ( <= ( + T6 48 )( + T3 12 ) ) )
(or ( <= ( + T3 46 )  ( + T6 48 ) ) ( <= ( + T6 107 )( + T3 38 ) ) )
(or ( <= ( + T3 65 )  ( + T6 107 ) ) ( <= ( + T6 176 )( + T3 46 ) ) )
(or ( <= ( + T3 158 )  ( + T6 176 ) ) ( <= ( + T6 251 )( + T3 65 ) ) )
(or ( <= ( + T3 215 )  ( + T6 251 ) ) ( <= ( + T6 312 )( + T3 158 ) ) )
(or ( <= ( + T3 223 )  ( + T6 312 ) ) ( <= ( + T6 378 )( + T3 215 ) ) )
(or ( <= ( + T3 252 )  ( + T6 378 ) ) ( <= ( + T6 449 )( + T3 223 ) ) )
(or ( <= ( + T3 294 )  ( + T6 449 ) ) ( <= ( + T6 548 )( + T3 252 ) ) )
(or ( <= ( + T3 350 )  ( + T6 548 ) ) ( <= ( + T6 631 )( + T3 294 ) ) )
(or ( <= ( + T3 353 )  ( + T6 631 ) ) ( <= ( + T6 698 )( + T3 350 ) ) )
(or ( <= ( + T3 451 )  ( + T6 698 ) ) ( <= ( + T6 706 )( + T3 353 ) ) )
(or ( <= ( + T3 12 ) T7 ) ( <= ( + T7 100 ) T3 ) )
(or ( <= ( + T3 38 )  ( + T7 100 ) ) ( <= ( + T7 180 )( + T3 12 ) ) )
(or ( <= ( + T3 46 )  ( + T7 180 ) ) ( <= ( + T7 187 )( + T3 38 ) ) )
(or ( <= ( + T3 65 )  ( + T7 187 ) ) ( <= ( + T7 193 )( + T3 46 ) ) )
(or ( <= ( + T3 158 )  ( + T7 193 ) ) ( <= ( + T7 221 )( + T3 65 ) ) )
(or ( <= ( + T3 215 )  ( + T7 221 ) ) ( <= ( + T7 249 )( + T3 158 ) ) )
(or ( <= ( + T3 223 )  ( + T7 249 ) ) ( <= ( + T7 254 )( + T3 215 ) ) )
(or ( <= ( + T3 252 )  ( + T7 254 ) ) ( <= ( + T7 266 )( + T3 223 ) ) )
(or ( <= ( + T3 294 )  ( + T7 266 ) ) ( <= ( + T7 307 )( + T3 252 ) ) )
(or ( <= ( + T3 350 )  ( + T7 307 ) ) ( <= ( + T7 378 )( + T3 294 ) ) )
(or ( <= ( + T3 353 )  ( + T7 378 ) ) ( <= ( + T7 403 )( + T3 350 ) ) )
(or ( <= ( + T3 451 )  ( + T7 403 ) ) ( <= ( + T7 475 )( + T3 353 ) ) )
(or ( <= ( + T3 12 ) T8 ) ( <= ( + T8 31 ) T3 ) )
(or ( <= ( + T3 38 )  ( + T8 31 ) ) ( <= ( + T8 67 )( + T3 12 ) ) )
(or ( <= ( + T3 46 )  ( + T8 67 ) ) ( <= ( + T8 81 )( + T3 38 ) ) )
(or ( <= ( + T3 65 )  ( + T8 81 ) ) ( <= ( + T8 149 )( + T3 46 ) ) )
(or ( <= ( + T3 158 )  ( + T8 149 ) ) ( <= ( + T8 155 )( + T3 65 ) ) )
(or ( <= ( + T3 215 )  ( + T8 155 ) ) ( <= ( + T8 181 )( + T3 158 ) ) )
(or ( <= ( + T3 223 )  ( + T8 181 ) ) ( <= ( + T8 279 )( + T3 215 ) ) )
(or ( <= ( + T3 252 )  ( + T8 279 ) ) ( <= ( + T8 312 )( + T3 223 ) ) )
(or ( <= ( + T3 294 )  ( + T8 312 ) ) ( <= ( + T8 409 )( + T3 252 ) ) )
(or ( <= ( + T3 350 )  ( + T8 409 ) ) ( <= ( + T8 465 )( + T3 294 ) ) )
(or ( <= ( + T3 353 )  ( + T8 465 ) ) ( <= ( + T8 519 )( + T3 350 ) ) )
(or ( <= ( + T3 451 )  ( + T8 519 ) ) ( <= ( + T8 591 )( + T3 353 ) ) )
(or ( <= ( + T3 12 ) T9 ) ( <= ( + T9 68 ) T3 ) )
(or ( <= ( + T3 38 )  ( + T9 68 ) ) ( <= ( + T9 87 )( + T3 12 ) ) )
(or ( <= ( + T3 46 )  ( + T9 87 ) ) ( <= ( + T9 129 )( + T3 38 ) ) )
(or ( <= ( + T3 65 )  ( + T9 129 ) ) ( <= ( + T9 196 )( + T3 46 ) ) )
(or ( <= ( + T3 158 )  ( + T9 196 ) ) ( <= ( + T9 249 )( + T3 65 ) ) )
(or ( <= ( + T3 215 )  ( + T9 249 ) ) ( <= ( + T9 310 )( + T3 158 ) ) )
(or ( <= ( + T3 223 )  ( + T9 310 ) ) ( <= ( + T9 384 )( + T3 215 ) ) )
(or ( <= ( + T3 252 )  ( + T9 384 ) ) ( <= ( + T9 437 )( + T3 223 ) ) )
(or ( <= ( + T3 294 )  ( + T9 437 ) ) ( <= ( + T9 477 )( + T3 252 ) ) )
(or ( <= ( + T3 350 )  ( + T9 477 ) ) ( <= ( + T9 509 )( + T3 294 ) ) )
(or ( <= ( + T3 353 )  ( + T9 509 ) ) ( <= ( + T9 567 )( + T3 350 ) ) )
(or ( <= ( + T3 451 )  ( + T9 567 ) ) ( <= ( + T9 587 )( + T3 353 ) ) )
(or ( <= ( + T3 12 ) T10 ) ( <= ( + T10 60 ) T3 ) )
(or ( <= ( + T3 38 )  ( + T10 60 ) ) ( <= ( + T10 74 )( + T3 12 ) ) )
(or ( <= ( + T3 46 )  ( + T10 74 ) ) ( <= ( + T10 105 )( + T3 38 ) ) )
(or ( <= ( + T3 65 )  ( + T10 105 ) ) ( <= ( + T10 157 )( + T3 46 ) ) )
(or ( <= ( + T3 158 )  ( + T10 157 ) ) ( <= ( + T10 241 )( + T3 65 ) ) )
(or ( <= ( + T3 215 )  ( + T10 241 ) ) ( <= ( + T10 296 )( + T3 158 ) ) )
(or ( <= ( + T3 223 )  ( + T10 296 ) ) ( <= ( + T10 371 )( + T3 215 ) ) )
(or ( <= ( + T3 252 )  ( + T10 371 ) ) ( <= ( + T10 437 )( + T3 223 ) ) )
(or ( <= ( + T3 294 )  ( + T10 437 ) ) ( <= ( + T10 479 )( + T3 252 ) ) )
(or ( <= ( + T3 350 )  ( + T10 479 ) ) ( <= ( + T10 519 )( + T3 294 ) ) )
(or ( <= ( + T3 353 )  ( + T10 519 ) ) ( <= ( + T10 605 )( + T3 350 ) ) )
(or ( <= ( + T3 451 )  ( + T10 605 ) ) ( <= ( + T10 652 )( + T3 353 ) ) )
(or ( <= ( + T4 97 ) T5 ) ( <= ( + T5 32 ) T4 ) )
(or ( <= ( + T4 184 )  ( + T5 32 ) ) ( <= ( + T5 45 )( + T4 97 ) ) )
(or ( <= ( + T4 249 )  ( + T5 45 ) ) ( <= ( + T5 60 )( + T4 184 ) ) )
(or ( <= ( + T4 346 )  ( + T5 60 ) ) ( <= ( + T5 74 )( + T4 249 ) ) )
(or ( <= ( + T4 355 )  ( + T5 74 ) ) ( <= ( + T5 154 )( + T4 346 ) ) )
(or ( <= ( + T4 421 )  ( + T5 154 ) ) ( <= ( + T5 215 )( + T4 355 ) ) )
(or ( <= ( + T4 483 )  ( + T5 215 ) ) ( <= ( + T5 227 )( + T4 421 ) ) )
(or ( <= ( + T4 531 )  ( + T5 227 ) ) ( <= ( + T5 270 )( + T4 483 ) ) )
(or ( <= ( + T4 538 )  ( + T5 270 ) ) ( <= ( + T5 356 )( + T4 531 ) ) )
(or ( <= ( + T4 587 )  ( + T5 356 ) ) ( <= ( + T5 375 )( + T4 538 ) ) )
(or ( <= ( + T4 609 )  ( + T5 375 ) ) ( <= ( + T5 388 )( + T4 587 ) ) )
(or ( <= ( + T4 708 )  ( + T5 388 ) ) ( <= ( + T5 466 )( + T4 609 ) ) )
(or ( <= ( + T4 97 ) T6 ) ( <= ( + T6 28 ) T4 ) )
(or ( <= ( + T4 184 )  ( + T6 28 ) ) ( <= ( + T6 48 )( + T4 97 ) ) )
(or ( <= ( + T4 249 )  ( + T6 48 ) ) ( <= ( + T6 107 )( + T4 184 ) ) )
(or ( <= ( + T4 346 )  ( + T6 107 ) ) ( <= ( + T6 176 )( + T4 249 ) ) )
(or ( <= ( + T4 355 )  ( + T6 176 ) ) ( <= ( + T6 251 )( + T4 346 ) ) )
(or ( <= ( + T4 421 )  ( + T6 251 ) ) ( <= ( + T6 312 )( + T4 355 ) ) )
(or ( <= ( + T4 483 )  ( + T6 312 ) ) ( <= ( + T6 378 )( + T4 421 ) ) )
(or ( <= ( + T4 531 )  ( + T6 378 ) ) ( <= ( + T6 449 )( + T4 483 ) ) )
(or ( <= ( + T4 538 )  ( + T6 449 ) ) ( <= ( + T6 548 )( + T4 531 ) ) )
(or ( <= ( + T4 587 )  ( + T6 548 ) ) ( <= ( + T6 631 )( + T4 538 ) ) )
(or ( <= ( + T4 609 )  ( + T6 631 ) ) ( <= ( + T6 698 )( + T4 587 ) ) )
(or ( <= ( + T4 708 )  ( + T6 698 ) ) ( <= ( + T6 706 )( + T4 609 ) ) )
(or ( <= ( + T4 97 ) T7 ) ( <= ( + T7 100 ) T4 ) )
(or ( <= ( + T4 184 )  ( + T7 100 ) ) ( <= ( + T7 180 )( + T4 97 ) ) )
(or ( <= ( + T4 249 )  ( + T7 180 ) ) ( <= ( + T7 187 )( + T4 184 ) ) )
(or ( <= ( + T4 346 )  ( + T7 187 ) ) ( <= ( + T7 193 )( + T4 249 ) ) )
(or ( <= ( + T4 355 )  ( + T7 193 ) ) ( <= ( + T7 221 )( + T4 346 ) ) )
(or ( <= ( + T4 421 )  ( + T7 221 ) ) ( <= ( + T7 249 )( + T4 355 ) ) )
(or ( <= ( + T4 483 )  ( + T7 249 ) ) ( <= ( + T7 254 )( + T4 421 ) ) )
(or ( <= ( + T4 531 )  ( + T7 254 ) ) ( <= ( + T7 266 )( + T4 483 ) ) )
(or ( <= ( + T4 538 )  ( + T7 266 ) ) ( <= ( + T7 307 )( + T4 531 ) ) )
(or ( <= ( + T4 587 )  ( + T7 307 ) ) ( <= ( + T7 378 )( + T4 538 ) ) )
(or ( <= ( + T4 609 )  ( + T7 378 ) ) ( <= ( + T7 403 )( + T4 587 ) ) )
(or ( <= ( + T4 708 )  ( + T7 403 ) ) ( <= ( + T7 475 )( + T4 609 ) ) )
(or ( <= ( + T4 97 ) T8 ) ( <= ( + T8 31 ) T4 ) )
(or ( <= ( + T4 184 )  ( + T8 31 ) ) ( <= ( + T8 67 )( + T4 97 ) ) )
(or ( <= ( + T4 249 )  ( + T8 67 ) ) ( <= ( + T8 81 )( + T4 184 ) ) )
(or ( <= ( + T4 346 )  ( + T8 81 ) ) ( <= ( + T8 149 )( + T4 249 ) ) )
(or ( <= ( + T4 355 )  ( + T8 149 ) ) ( <= ( + T8 155 )( + T4 346 ) ) )
(or ( <= ( + T4 421 )  ( + T8 155 ) ) ( <= ( + T8 181 )( + T4 355 ) ) )
(or ( <= ( + T4 483 )  ( + T8 181 ) ) ( <= ( + T8 279 )( + T4 421 ) ) )
(or ( <= ( + T4 531 )  ( + T8 279 ) ) ( <= ( + T8 312 )( + T4 483 ) ) )
(or ( <= ( + T4 538 )  ( + T8 312 ) ) ( <= ( + T8 409 )( + T4 531 ) ) )
(or ( <= ( + T4 587 )  ( + T8 409 ) ) ( <= ( + T8 465 )( + T4 538 ) ) )
(or ( <= ( + T4 609 )  ( + T8 465 ) ) ( <= ( + T8 519 )( + T4 587 ) ) )
(or ( <= ( + T4 708 )  ( + T8 519 ) ) ( <= ( + T8 591 )( + T4 609 ) ) )
(or ( <= ( + T4 97 ) T9 ) ( <= ( + T9 68 ) T4 ) )
(or ( <= ( + T4 184 )  ( + T9 68 ) ) ( <= ( + T9 87 )( + T4 97 ) ) )
(or ( <= ( + T4 249 )  ( + T9 87 ) ) ( <= ( + T9 129 )( + T4 184 ) ) )
(or ( <= ( + T4 346 )  ( + T9 129 ) ) ( <= ( + T9 196 )( + T4 249 ) ) )
(or ( <= ( + T4 355 )  ( + T9 196 ) ) ( <= ( + T9 249 )( + T4 346 ) ) )
(or ( <= ( + T4 421 )  ( + T9 249 ) ) ( <= ( + T9 310 )( + T4 355 ) ) )
(or ( <= ( + T4 483 )  ( + T9 310 ) ) ( <= ( + T9 384 )( + T4 421 ) ) )
(or ( <= ( + T4 531 )  ( + T9 384 ) ) ( <= ( + T9 437 )( + T4 483 ) ) )
(or ( <= ( + T4 538 )  ( + T9 437 ) ) ( <= ( + T9 477 )( + T4 531 ) ) )
(or ( <= ( + T4 587 )  ( + T9 477 ) ) ( <= ( + T9 509 )( + T4 538 ) ) )
(or ( <= ( + T4 609 )  ( + T9 509 ) ) ( <= ( + T9 567 )( + T4 587 ) ) )
(or ( <= ( + T4 708 )  ( + T9 567 ) ) ( <= ( + T9 587 )( + T4 609 ) ) )
(or ( <= ( + T4 97 ) T10 ) ( <= ( + T10 60 ) T4 ) )
(or ( <= ( + T4 184 )  ( + T10 60 ) ) ( <= ( + T10 74 )( + T4 97 ) ) )
(or ( <= ( + T4 249 )  ( + T10 74 ) ) ( <= ( + T10 105 )( + T4 184 ) ) )
(or ( <= ( + T4 346 )  ( + T10 105 ) ) ( <= ( + T10 157 )( + T4 249 ) ) )
(or ( <= ( + T4 355 )  ( + T10 157 ) ) ( <= ( + T10 241 )( + T4 346 ) ) )
(or ( <= ( + T4 421 )  ( + T10 241 ) ) ( <= ( + T10 296 )( + T4 355 ) ) )
(or ( <= ( + T4 483 )  ( + T10 296 ) ) ( <= ( + T10 371 )( + T4 421 ) ) )
(or ( <= ( + T4 531 )  ( + T10 371 ) ) ( <= ( + T10 437 )( + T4 483 ) ) )
(or ( <= ( + T4 538 )  ( + T10 437 ) ) ( <= ( + T10 479 )( + T4 531 ) ) )
(or ( <= ( + T4 587 )  ( + T10 479 ) ) ( <= ( + T10 519 )( + T4 538 ) ) )
(or ( <= ( + T4 609 )  ( + T10 519 ) ) ( <= ( + T10 605 )( + T4 587 ) ) )
(or ( <= ( + T4 708 )  ( + T10 605 ) ) ( <= ( + T10 652 )( + T4 609 ) ) )
(or ( <= ( + T5 32 ) T6 ) ( <= ( + T6 28 ) T5 ) )
(or ( <= ( + T5 45 )  ( + T6 28 ) ) ( <= ( + T6 48 )( + T5 32 ) ) )
(or ( <= ( + T5 60 )  ( + T6 48 ) ) ( <= ( + T6 107 )( + T5 45 ) ) )
(or ( <= ( + T5 74 )  ( + T6 107 ) ) ( <= ( + T6 176 )( + T5 60 ) ) )
(or ( <= ( + T5 154 )  ( + T6 176 ) ) ( <= ( + T6 251 )( + T5 74 ) ) )
(or ( <= ( + T5 215 )  ( + T6 251 ) ) ( <= ( + T6 312 )( + T5 154 ) ) )
(or ( <= ( + T5 227 )  ( + T6 312 ) ) ( <= ( + T6 378 )( + T5 215 ) ) )
(or ( <= ( + T5 270 )  ( + T6 378 ) ) ( <= ( + T6 449 )( + T5 227 ) ) )
(or ( <= ( + T5 356 )  ( + T6 449 ) ) ( <= ( + T6 548 )( + T5 270 ) ) )
(or ( <= ( + T5 375 )  ( + T6 548 ) ) ( <= ( + T6 631 )( + T5 356 ) ) )
(or ( <= ( + T5 388 )  ( + T6 631 ) ) ( <= ( + T6 698 )( + T5 375 ) ) )
(or ( <= ( + T5 466 )  ( + T6 698 ) ) ( <= ( + T6 706 )( + T5 388 ) ) )
(or ( <= ( + T5 32 ) T7 ) ( <= ( + T7 100 ) T5 ) )
(or ( <= ( + T5 45 )  ( + T7 100 ) ) ( <= ( + T7 180 )( + T5 32 ) ) )
(or ( <= ( + T5 60 )  ( + T7 180 ) ) ( <= ( + T7 187 )( + T5 45 ) ) )
(or ( <= ( + T5 74 )  ( + T7 187 ) ) ( <= ( + T7 193 )( + T5 60 ) ) )
(or ( <= ( + T5 154 )  ( + T7 193 ) ) ( <= ( + T7 221 )( + T5 74 ) ) )
(or ( <= ( + T5 215 )  ( + T7 221 ) ) ( <= ( + T7 249 )( + T5 154 ) ) )
(or ( <= ( + T5 227 )  ( + T7 249 ) ) ( <= ( + T7 254 )( + T5 215 ) ) )
(or ( <= ( + T5 270 )  ( + T7 254 ) ) ( <= ( + T7 266 )( + T5 227 ) ) )
(or ( <= ( + T5 356 )  ( + T7 266 ) ) ( <= ( + T7 307 )( + T5 270 ) ) )
(or ( <= ( + T5 375 )  ( + T7 307 ) ) ( <= ( + T7 378 )( + T5 356 ) ) )
(or ( <= ( + T5 388 )  ( + T7 378 ) ) ( <= ( + T7 403 )( + T5 375 ) ) )
(or ( <= ( + T5 466 )  ( + T7 403 ) ) ( <= ( + T7 475 )( + T5 388 ) ) )
(or ( <= ( + T5 32 ) T8 ) ( <= ( + T8 31 ) T5 ) )
(or ( <= ( + T5 45 )  ( + T8 31 ) ) ( <= ( + T8 67 )( + T5 32 ) ) )
(or ( <= ( + T5 60 )  ( + T8 67 ) ) ( <= ( + T8 81 )( + T5 45 ) ) )
(or ( <= ( + T5 74 )  ( + T8 81 ) ) ( <= ( + T8 149 )( + T5 60 ) ) )
(or ( <= ( + T5 154 )  ( + T8 149 ) ) ( <= ( + T8 155 )( + T5 74 ) ) )
(or ( <= ( + T5 215 )  ( + T8 155 ) ) ( <= ( + T8 181 )( + T5 154 ) ) )
(or ( <= ( + T5 227 )  ( + T8 181 ) ) ( <= ( + T8 279 )( + T5 215 ) ) )
(or ( <= ( + T5 270 )  ( + T8 279 ) ) ( <= ( + T8 312 )( + T5 227 ) ) )
(or ( <= ( + T5 356 )  ( + T8 312 ) ) ( <= ( + T8 409 )( + T5 270 ) ) )
(or ( <= ( + T5 375 )  ( + T8 409 ) ) ( <= ( + T8 465 )( + T5 356 ) ) )
(or ( <= ( + T5 388 )  ( + T8 465 ) ) ( <= ( + T8 519 )( + T5 375 ) ) )
(or ( <= ( + T5 466 )  ( + T8 519 ) ) ( <= ( + T8 591 )( + T5 388 ) ) )
(or ( <= ( + T5 32 ) T9 ) ( <= ( + T9 68 ) T5 ) )
(or ( <= ( + T5 45 )  ( + T9 68 ) ) ( <= ( + T9 87 )( + T5 32 ) ) )
(or ( <= ( + T5 60 )  ( + T9 87 ) ) ( <= ( + T9 129 )( + T5 45 ) ) )
(or ( <= ( + T5 74 )  ( + T9 129 ) ) ( <= ( + T9 196 )( + T5 60 ) ) )
(or ( <= ( + T5 154 )  ( + T9 196 ) ) ( <= ( + T9 249 )( + T5 74 ) ) )
(or ( <= ( + T5 215 )  ( + T9 249 ) ) ( <= ( + T9 310 )( + T5 154 ) ) )
(or ( <= ( + T5 227 )  ( + T9 310 ) ) ( <= ( + T9 384 )( + T5 215 ) ) )
(or ( <= ( + T5 270 )  ( + T9 384 ) ) ( <= ( + T9 437 )( + T5 227 ) ) )
(or ( <= ( + T5 356 )  ( + T9 437 ) ) ( <= ( + T9 477 )( + T5 270 ) ) )
(or ( <= ( + T5 375 )  ( + T9 477 ) ) ( <= ( + T9 509 )( + T5 356 ) ) )
(or ( <= ( + T5 388 )  ( + T9 509 ) ) ( <= ( + T9 567 )( + T5 375 ) ) )
(or ( <= ( + T5 466 )  ( + T9 567 ) ) ( <= ( + T9 587 )( + T5 388 ) ) )
(or ( <= ( + T5 32 ) T10 ) ( <= ( + T10 60 ) T5 ) )
(or ( <= ( + T5 45 )  ( + T10 60 ) ) ( <= ( + T10 74 )( + T5 32 ) ) )
(or ( <= ( + T5 60 )  ( + T10 74 ) ) ( <= ( + T10 105 )( + T5 45 ) ) )
(or ( <= ( + T5 74 )  ( + T10 105 ) ) ( <= ( + T10 157 )( + T5 60 ) ) )
(or ( <= ( + T5 154 )  ( + T10 157 ) ) ( <= ( + T10 241 )( + T5 74 ) ) )
(or ( <= ( + T5 215 )  ( + T10 241 ) ) ( <= ( + T10 296 )( + T5 154 ) ) )
(or ( <= ( + T5 227 )  ( + T10 296 ) ) ( <= ( + T10 371 )( + T5 215 ) ) )
(or ( <= ( + T5 270 )  ( + T10 371 ) ) ( <= ( + T10 437 )( + T5 227 ) ) )
(or ( <= ( + T5 356 )  ( + T10 437 ) ) ( <= ( + T10 479 )( + T5 270 ) ) )
(or ( <= ( + T5 375 )  ( + T10 479 ) ) ( <= ( + T10 519 )( + T5 356 ) ) )
(or ( <= ( + T5 388 )  ( + T10 519 ) ) ( <= ( + T10 605 )( + T5 375 ) ) )
(or ( <= ( + T5 466 )  ( + T10 605 ) ) ( <= ( + T10 652 )( + T5 388 ) ) )
(or ( <= ( + T6 28 ) T7 ) ( <= ( + T7 100 ) T6 ) )
(or ( <= ( + T6 48 )  ( + T7 100 ) ) ( <= ( + T7 180 )( + T6 28 ) ) )
(or ( <= ( + T6 107 )  ( + T7 180 ) ) ( <= ( + T7 187 )( + T6 48 ) ) )
(or ( <= ( + T6 176 )  ( + T7 187 ) ) ( <= ( + T7 193 )( + T6 107 ) ) )
(or ( <= ( + T6 251 )  ( + T7 193 ) ) ( <= ( + T7 221 )( + T6 176 ) ) )
(or ( <= ( + T6 312 )  ( + T7 221 ) ) ( <= ( + T7 249 )( + T6 251 ) ) )
(or ( <= ( + T6 378 )  ( + T7 249 ) ) ( <= ( + T7 254 )( + T6 312 ) ) )
(or ( <= ( + T6 449 )  ( + T7 254 ) ) ( <= ( + T7 266 )( + T6 378 ) ) )
(or ( <= ( + T6 548 )  ( + T7 266 ) ) ( <= ( + T7 307 )( + T6 449 ) ) )
(or ( <= ( + T6 631 )  ( + T7 307 ) ) ( <= ( + T7 378 )( + T6 548 ) ) )
(or ( <= ( + T6 698 )  ( + T7 378 ) ) ( <= ( + T7 403 )( + T6 631 ) ) )
(or ( <= ( + T6 706 )  ( + T7 403 ) ) ( <= ( + T7 475 )( + T6 698 ) ) )
(or ( <= ( + T6 28 ) T8 ) ( <= ( + T8 31 ) T6 ) )
(or ( <= ( + T6 48 )  ( + T8 31 ) ) ( <= ( + T8 67 )( + T6 28 ) ) )
(or ( <= ( + T6 107 )  ( + T8 67 ) ) ( <= ( + T8 81 )( + T6 48 ) ) )
(or ( <= ( + T6 176 )  ( + T8 81 ) ) ( <= ( + T8 149 )( + T6 107 ) ) )
(or ( <= ( + T6 251 )  ( + T8 149 ) ) ( <= ( + T8 155 )( + T6 176 ) ) )
(or ( <= ( + T6 312 )  ( + T8 155 ) ) ( <= ( + T8 181 )( + T6 251 ) ) )
(or ( <= ( + T6 378 )  ( + T8 181 ) ) ( <= ( + T8 279 )( + T6 312 ) ) )
(or ( <= ( + T6 449 )  ( + T8 279 ) ) ( <= ( + T8 312 )( + T6 378 ) ) )
(or ( <= ( + T6 548 )  ( + T8 312 ) ) ( <= ( + T8 409 )( + T6 449 ) ) )
(or ( <= ( + T6 631 )  ( + T8 409 ) ) ( <= ( + T8 465 )( + T6 548 ) ) )
(or ( <= ( + T6 698 )  ( + T8 465 ) ) ( <= ( + T8 519 )( + T6 631 ) ) )
(or ( <= ( + T6 706 )  ( + T8 519 ) ) ( <= ( + T8 591 )( + T6 698 ) ) )
(or ( <= ( + T6 28 ) T9 ) ( <= ( + T9 68 ) T6 ) )
(or ( <= ( + T6 48 )  ( + T9 68 ) ) ( <= ( + T9 87 )( + T6 28 ) ) )
(or ( <= ( + T6 107 )  ( + T9 87 ) ) ( <= ( + T9 129 )( + T6 48 ) ) )
(or ( <= ( + T6 176 )  ( + T9 129 ) ) ( <= ( + T9 196 )( + T6 107 ) ) )
(or ( <= ( + T6 251 )  ( + T9 196 ) ) ( <= ( + T9 249 )( + T6 176 ) ) )
(or ( <= ( + T6 312 )  ( + T9 249 ) ) ( <= ( + T9 310 )( + T6 251 ) ) )
(or ( <= ( + T6 378 )  ( + T9 310 ) ) ( <= ( + T9 384 )( + T6 312 ) ) )
(or ( <= ( + T6 449 )  ( + T9 384 ) ) ( <= ( + T9 437 )( + T6 378 ) ) )
(or ( <= ( + T6 548 )  ( + T9 437 ) ) ( <= ( + T9 477 )( + T6 449 ) ) )
(or ( <= ( + T6 631 )  ( + T9 477 ) ) ( <= ( + T9 509 )( + T6 548 ) ) )
(or ( <= ( + T6 698 )  ( + T9 509 ) ) ( <= ( + T9 567 )( + T6 631 ) ) )
(or ( <= ( + T6 706 )  ( + T9 567 ) ) ( <= ( + T9 587 )( + T6 698 ) ) )
(or ( <= ( + T6 28 ) T10 ) ( <= ( + T10 60 ) T6 ) )
(or ( <= ( + T6 48 )  ( + T10 60 ) ) ( <= ( + T10 74 )( + T6 28 ) ) )
(or ( <= ( + T6 107 )  ( + T10 74 ) ) ( <= ( + T10 105 )( + T6 48 ) ) )
(or ( <= ( + T6 176 )  ( + T10 105 ) ) ( <= ( + T10 157 )( + T6 107 ) ) )
(or ( <= ( + T6 251 )  ( + T10 157 ) ) ( <= ( + T10 241 )( + T6 176 ) ) )
(or ( <= ( + T6 312 )  ( + T10 241 ) ) ( <= ( + T10 296 )( + T6 251 ) ) )
(or ( <= ( + T6 378 )  ( + T10 296 ) ) ( <= ( + T10 371 )( + T6 312 ) ) )
(or ( <= ( + T6 449 )  ( + T10 371 ) ) ( <= ( + T10 437 )( + T6 378 ) ) )
(or ( <= ( + T6 548 )  ( + T10 437 ) ) ( <= ( + T10 479 )( + T6 449 ) ) )
(or ( <= ( + T6 631 )  ( + T10 479 ) ) ( <= ( + T10 519 )( + T6 548 ) ) )
(or ( <= ( + T6 698 )  ( + T10 519 ) ) ( <= ( + T10 605 )( + T6 631 ) ) )
(or ( <= ( + T6 706 )  ( + T10 605 ) ) ( <= ( + T10 652 )( + T6 698 ) ) )
(or ( <= ( + T7 100 ) T8 ) ( <= ( + T8 31 ) T7 ) )
(or ( <= ( + T7 180 )  ( + T8 31 ) ) ( <= ( + T8 67 )( + T7 100 ) ) )
(or ( <= ( + T7 187 )  ( + T8 67 ) ) ( <= ( + T8 81 )( + T7 180 ) ) )
(or ( <= ( + T7 193 )  ( + T8 81 ) ) ( <= ( + T8 149 )( + T7 187 ) ) )
(or ( <= ( + T7 221 )  ( + T8 149 ) ) ( <= ( + T8 155 )( + T7 193 ) ) )
(or ( <= ( + T7 249 )  ( + T8 155 ) ) ( <= ( + T8 181 )( + T7 221 ) ) )
(or ( <= ( + T7 254 )  ( + T8 181 ) ) ( <= ( + T8 279 )( + T7 249 ) ) )
(or ( <= ( + T7 266 )  ( + T8 279 ) ) ( <= ( + T8 312 )( + T7 254 ) ) )
(or ( <= ( + T7 307 )  ( + T8 312 ) ) ( <= ( + T8 409 )( + T7 266 ) ) )
(or ( <= ( + T7 378 )  ( + T8 409 ) ) ( <= ( + T8 465 )( + T7 307 ) ) )
(or ( <= ( + T7 403 )  ( + T8 465 ) ) ( <= ( + T8 519 )( + T7 378 ) ) )
(or ( <= ( + T7 475 )  ( + T8 519 ) ) ( <= ( + T8 591 )( + T7 403 ) ) )
(or ( <= ( + T7 100 ) T9 ) ( <= ( + T9 68 ) T7 ) )
(or ( <= ( + T7 180 )  ( + T9 68 ) ) ( <= ( + T9 87 )( + T7 100 ) ) )
(or ( <= ( + T7 187 )  ( + T9 87 ) ) ( <= ( + T9 129 )( + T7 180 ) ) )
(or ( <= ( + T7 193 )  ( + T9 129 ) ) ( <= ( + T9 196 )( + T7 187 ) ) )
(or ( <= ( + T7 221 )  ( + T9 196 ) ) ( <= ( + T9 249 )( + T7 193 ) ) )
(or ( <= ( + T7 249 )  ( + T9 249 ) ) ( <= ( + T9 310 )( + T7 221 ) ) )
(or ( <= ( + T7 254 )  ( + T9 310 ) ) ( <= ( + T9 384 )( + T7 249 ) ) )
(or ( <= ( + T7 266 )  ( + T9 384 ) ) ( <= ( + T9 437 )( + T7 254 ) ) )
(or ( <= ( + T7 307 )  ( + T9 437 ) ) ( <= ( + T9 477 )( + T7 266 ) ) )
(or ( <= ( + T7 378 )  ( + T9 477 ) ) ( <= ( + T9 509 )( + T7 307 ) ) )
(or ( <= ( + T7 403 )  ( + T9 509 ) ) ( <= ( + T9 567 )( + T7 378 ) ) )
(or ( <= ( + T7 475 )  ( + T9 567 ) ) ( <= ( + T9 587 )( + T7 403 ) ) )
(or ( <= ( + T7 100 ) T10 ) ( <= ( + T10 60 ) T7 ) )
(or ( <= ( + T7 180 )  ( + T10 60 ) ) ( <= ( + T10 74 )( + T7 100 ) ) )
(or ( <= ( + T7 187 )  ( + T10 74 ) ) ( <= ( + T10 105 )( + T7 180 ) ) )
(or ( <= ( + T7 193 )  ( + T10 105 ) ) ( <= ( + T10 157 )( + T7 187 ) ) )
(or ( <= ( + T7 221 )  ( + T10 157 ) ) ( <= ( + T10 241 )( + T7 193 ) ) )
(or ( <= ( + T7 249 )  ( + T10 241 ) ) ( <= ( + T10 296 )( + T7 221 ) ) )
(or ( <= ( + T7 254 )  ( + T10 296 ) ) ( <= ( + T10 371 )( + T7 249 ) ) )
(or ( <= ( + T7 266 )  ( + T10 371 ) ) ( <= ( + T10 437 )( + T7 254 ) ) )
(or ( <= ( + T7 307 )  ( + T10 437 ) ) ( <= ( + T10 479 )( + T7 266 ) ) )
(or ( <= ( + T7 378 )  ( + T10 479 ) ) ( <= ( + T10 519 )( + T7 307 ) ) )
(or ( <= ( + T7 403 )  ( + T10 519 ) ) ( <= ( + T10 605 )( + T7 378 ) ) )
(or ( <= ( + T7 475 )  ( + T10 605 ) ) ( <= ( + T10 652 )( + T7 403 ) ) )
(or ( <= ( + T8 31 ) T9 ) ( <= ( + T9 68 ) T8 ) )
(or ( <= ( + T8 67 )  ( + T9 68 ) ) ( <= ( + T9 87 )( + T8 31 ) ) )
(or ( <= ( + T8 81 )  ( + T9 87 ) ) ( <= ( + T9 129 )( + T8 67 ) ) )
(or ( <= ( + T8 149 )  ( + T9 129 ) ) ( <= ( + T9 196 )( + T8 81 ) ) )
(or ( <= ( + T8 155 )  ( + T9 196 ) ) ( <= ( + T9 249 )( + T8 149 ) ) )
(or ( <= ( + T8 181 )  ( + T9 249 ) ) ( <= ( + T9 310 )( + T8 155 ) ) )
(or ( <= ( + T8 279 )  ( + T9 310 ) ) ( <= ( + T9 384 )( + T8 181 ) ) )
(or ( <= ( + T8 312 )  ( + T9 384 ) ) ( <= ( + T9 437 )( + T8 279 ) ) )
(or ( <= ( + T8 409 )  ( + T9 437 ) ) ( <= ( + T9 477 )( + T8 312 ) ) )
(or ( <= ( + T8 465 )  ( + T9 477 ) ) ( <= ( + T9 509 )( + T8 409 ) ) )
(or ( <= ( + T8 519 )  ( + T9 509 ) ) ( <= ( + T9 567 )( + T8 465 ) ) )
(or ( <= ( + T8 591 )  ( + T9 567 ) ) ( <= ( + T9 587 )( + T8 519 ) ) )
(or ( <= ( + T8 31 ) T10 ) ( <= ( + T10 60 ) T8 ) )
(or ( <= ( + T8 67 )  ( + T10 60 ) ) ( <= ( + T10 74 )( + T8 31 ) ) )
(or ( <= ( + T8 81 )  ( + T10 74 ) ) ( <= ( + T10 105 )( + T8 67 ) ) )
(or ( <= ( + T8 149 )  ( + T10 105 ) ) ( <= ( + T10 157 )( + T8 81 ) ) )
(or ( <= ( + T8 155 )  ( + T10 157 ) ) ( <= ( + T10 241 )( + T8 149 ) ) )
(or ( <= ( + T8 181 )  ( + T10 241 ) ) ( <= ( + T10 296 )( + T8 155 ) ) )
(or ( <= ( + T8 279 )  ( + T10 296 ) ) ( <= ( + T10 371 )( + T8 181 ) ) )
(or ( <= ( + T8 312 )  ( + T10 371 ) ) ( <= ( + T10 437 )( + T8 279 ) ) )
(or ( <= ( + T8 409 )  ( + T10 437 ) ) ( <= ( + T10 479 )( + T8 312 ) ) )
(or ( <= ( + T8 465 )  ( + T10 479 ) ) ( <= ( + T10 519 )( + T8 409 ) ) )
(or ( <= ( + T8 519 )  ( + T10 519 ) ) ( <= ( + T10 605 )( + T8 465 ) ) )
(or ( <= ( + T8 591 )  ( + T10 605 ) ) ( <= ( + T10 652 )( + T8 519 ) ) )
(or ( <= ( + T9 68 ) T10 ) ( <= ( + T10 60 ) T9 ) )
(or ( <= ( + T9 87 )  ( + T10 60 ) ) ( <= ( + T10 74 )( + T9 68 ) ) )
(or ( <= ( + T9 129 )  ( + T10 74 ) ) ( <= ( + T10 105 )( + T9 87 ) ) )
(or ( <= ( + T9 196 )  ( + T10 105 ) ) ( <= ( + T10 157 )( + T9 129 ) ) )
(or ( <= ( + T9 249 )  ( + T10 157 ) ) ( <= ( + T10 241 )( + T9 196 ) ) )
(or ( <= ( + T9 310 )  ( + T10 241 ) ) ( <= ( + T10 296 )( + T9 249 ) ) )
(or ( <= ( + T9 384 )  ( + T10 296 ) ) ( <= ( + T10 371 )( + T9 310 ) ) )
(or ( <= ( + T9 437 )  ( + T10 371 ) ) ( <= ( + T10 437 )( + T9 384 ) ) )
(or ( <= ( + T9 477 )  ( + T10 437 ) ) ( <= ( + T10 479 )( + T9 437 ) ) )
(or ( <= ( + T9 509 )  ( + T10 479 ) ) ( <= ( + T10 519 )( + T9 477 ) ) )
(or ( <= ( + T9 567 )  ( + T10 519 ) ) ( <= ( + T10 605 )( + T9 509 ) ) )
(or ( <= ( + T9 587 )  ( + T10 605 ) ) ( <= ( + T10 652 )( + T9 567 ) ) )
( <= ( + T1 524 ) Z)
( <= ( + T2 659 ) Z)
( <= ( + T3 451 ) Z)
( <= ( + T4 708 ) Z)
( <= ( + T5 466 ) Z)
( <= ( + T6 706 ) Z)
( <= ( + T7 475 ) Z)
( <= ( + T8 591 ) Z)
( <= ( + T9 587 ) Z)
( <= ( + T10 652 ) Z)
( >= T1 0 )
( >= T2 0 )
( >= T3 0 )
( >= T4 0 )
( >= T5 0 )
( >= T6 0 )
( >= T7 0 )
( >= T8 0 )
( >= T9 0 )
( >= T10 0 )
) )
(minimize Z)
(check-sat)